(declare-const d Int)
(declare-const term_to_project_onto0 Real)
(declare-const term_to_project_onto1 Real)
(declare-const term_to_project_onto Real)
(assert (exists
         ((|c'?1| Int) (|e'?2| Int) (|d'?3| Int) (K?4 Int) (|d'?5| Int)
            (|e'?6| Int) (e?7 Int) (c?8 Int) (b?9 Int) (uint32_max?10 Int)
            (a?11 Int))
         (and (<= (- c?8) 0) (<= (- b?9) 0) (<= (+ (- uint32_max?10) 1) 0)
                (<= (- a?11) 0) (= (+ (- uint32_max?10) 4294967295) 0)
                (<= (+ (- uint32_max?10) c?8 2) 0) (= (+ (- |d'?3|) K?4) 0)
                (or (and (= K?4 0) (= (+ (- |e'?2|) e?7) 0) (= (- |d'?3|) 0))
                      (and (<= (+ (- K?4) 1) 0)
                             (= (+ uint32_max?10 -4294967295) 0)
                             (<= (- c?8) 0) (<= (- b?9) 0) (<= (- a?11) 0)
                             (= (+ |e'?2| -4294967294) 0)
                             (= (+ uint32_max?10 -4294967295) 0)
                             (<= (+ |d'?3| -4294967294) 0)
                             (<= (+ (- |d'?3|) 1) 0) (<= (- c?8) 0)
                             (<= (- b?9) 0) (<= (- a?11) 0))) (<= (- K?4) 0)
                (<= (- |d'?3|) 0) (<= (- c?8) 0) (<= (- b?9) 0)
                (<= (+ (- uint32_max?10) 1) 0) (<= (- a?11) 0)
                (= (+ (- uint32_max?10) 4294967295) 0)
                (<= (+ (- |d'?3|) uint32_max?10 -1) 0)
                (= (+ |e'?6| (- |e'?2|)) 0) (= (+ |d'?5| (- |d'?3|)) 0)
                (= (+ |c'?1| (- c?8) -1) 0)
                (= term_to_project_onto1 (+ |c'?1| (- c?8)))
                (= term_to_project_onto0 (+ |d'?5| (- d)))
                (= term_to_project_onto (+ |e'?6| (- e?7))))))
(check-sat)
